Maximize
  - 3.6220224366907 edge_0_1_0_0 - 2.1810898691346 edge_0_2_0_0
   - 2.20551 edge_0_3_0_0 - 2.3176797218784 edge_0_4_0_0
   - 3.1994756982797 edge_0_5_0_0 - 2.6991811235113 edge_0_6_0_0
   - 3.1488268196817 edge_0_10_0_0 + 1.4260461477213 edge_1_2_0_0
   + 0.026719396500175 edge_1_3_0_0 - 0.24423767580998 edge_1_4_0_0
   - 0.8967753144730323 edge_1_5_0_0 - 0.7330762514596882 edge_1_6_0_0
   + 3.6507331043471 edge_2_1_0_0 + 1.010396029128235 edge_2_3_0_0
   + 0.9292628327326666 edge_2_4_0_0 - 0.2661537943179214 edge_2_5_0_0
   - 0.09217068546928 edge_2_6_0_0 - 0.5702964292209922 edge_2_7_0_0
   + 0.1297727673610335 edge_2_8_0_0 - 0.5530103984950542 edge_2_9_0_0
   - 0.2941326852777078 edge_2_10_0_0 - 0.5456434488995912 edge_2_15_0_0
   - 0.00388125586485563 edge_2_16_0_0 - 0.4048994192222035 edge_2_18_0_0
   - 1.476898331103095 edge_2_20_0_0 + 0.2197417758334926 edge_2_21_0_0
   + 0.9915859431174 edge_3_1_0_0 + 0.5972056529726986 edge_3_2_0_0
   + 3.17471 edge_3_4_0_0 + 1.4777087506464 edge_3_5_0_0
   + 1.6980852957096 edge_3_6_0_0 + 0.53478551410736 edge_3_7_0_0
   + 0.85780534783832 edge_3_8_0_0 + 1.12149 edge_3_10_0_0
   + 0.46747897008089 edge_3_12_0_0 + 0.43283435612529 edge_3_13_0_0
   + 0.7611 edge_3_15_0_0 + 0.5528367518542201 edge_3_16_0_0
   + 0.7946528092832801 edge_3_18_0_0 + 0.091393089032828 edge_3_20_0_0
   - 0.16133302018226 edge_3_21_0_0 + 0.4444526933527104 edge_4_1_0_0
   + 1.721719690090412 edge_4_2_0_0 + 3.07829771754453 edge_4_3_0_0
   + 0.4569249027053151 edge_4_5_0_0 + 1.090210809371187 edge_4_6_0_0
   + 0.2118593095880898 edge_4_7_0_0 + 0.5453825714123737 edge_4_8_0_0
   + 0.3388284587898601 edge_4_9_0_0 + 0.8968399865697787 edge_4_10_0_0
   - 0.32730458570428 edge_4_12_0_0 - 1.2283954684526 edge_4_13_0_0
   + 0.4493435192019712 edge_4_15_0_0 + 0.60223307359248 edge_4_16_0_0
   + 0.2199436313093411 edge_4_18_0_0 + 0.1050358750071735 edge_4_20_0_0
   + 1.064568143906807 edge_4_21_0_0 - 0.2208231789404679 edge_5_1_0_0
   + 0.1369993793900368 edge_5_2_0_0 - 0.19281055960497 edge_5_3_0_0
   + 0.3571763605531715 edge_5_4_0_0 + 1.366187885804653 edge_5_6_0_0
   + 0.5913910903123097 edge_5_7_0_0 - 0.6877221868269991 edge_5_8_0_0
   + 0.0909943263278992 edge_5_9_0_0 - 0.23893397187702 edge_5_10_0_0
   - 0.9090184664486505 edge_5_13_0_0 - 1.024834715821143 edge_5_14_0_0
   - 0.5796753663594301 edge_5_15_0_0 - 1.162189231926212 edge_5_19_0_0
   - 1.305411880634755 edge_5_20_0_0 - 0.2797240245701398 edge_6_1_0_0
   - 0.308598581550044 edge_6_2_0_0 + 0.0478761327482622 edge_6_3_0_0
   - 0.15833331450692 edge_6_4_0_0 + 2.345642072834666 edge_6_5_0_0
   + 0.5333850521909227 edge_6_7_0_0 + 0.6756123944064235 edge_6_8_0_0
   + 0.3410025465094654 edge_6_9_0_0 + 1.170414201272563 edge_6_10_0_0
   - 0.1182418825663862 edge_6_14_0_0 - 0.1101252390947435 edge_6_15_0_0
   + 0.393685400352601 edge_6_16_0_0 + 0.3883336711607732 edge_6_18_0_0
   - 0.3964374947097876 edge_6_19_0_0 - 0.289761556244023 edge_6_20_0_0
   + 0.4457108547382116 edge_6_21_0_0 - 0.03310601566948 edge_7_2_0_0
   - 0.1979708634409947 edge_7_5_0_0 + 1.168896751932774 edge_7_6_0_0
   + 0.5824615026102892 edge_7_8_0_0 + 1.513096586524022 edge_7_9_0_0
   + 1.8343281282374 edge_7_10_0_0 - 0.2451421076430851 edge_7_12_0_0
   + 0.2750201674387158 edge_7_13_0_0 - 0.5049228113041383 edge_7_14_0_0
   + 0.0773151360989529 edge_7_15_0_0 - 0.0745999775010238 edge_7_18_0_0
   - 0.8463629699635402 edge_7_19_0_0 - 1.236981817015943 edge_8_1_0_0
   - 1.336335521875164 edge_8_2_0_0 - 0.66088881194242 edge_8_3_0_0
   - 0.70486080537167 edge_8_4_0_0 - 0.343342259245847 edge_8_5_0_0
   + 0.0616593823639439 edge_8_6_0_0 + 1.417592420368092 edge_8_7_0_0
   + 2.08460942016946 edge_8_9_0_0 + 1.06592711758 edge_8_10_0_0
   + 0.0906345835179084 edge_8_12_0_0 + 0.9592942497690271 edge_8_13_0_0
   + 0.0858559932117026 edge_8_14_0_0 + 0.99339507693469 edge_8_15_0_0
   + 0.6021228565010912 edge_8_16_0_0 - 0.066199746411593 edge_8_18_0_0
   - 0.4674828903440748 edge_8_19_0_0 - 0.6763876710408897 edge_8_20_0_0
   + 0.00959153260447356 edge_8_21_0_0 + 0.6181311048227971 edge_9_7_0_0
   + 0.5295095074130822 edge_9_8_0_0 - 0.8341885823502909 edge_10_1_0_0
   - 0.7873511575334078 edge_10_2_0_0 - 0.532473 edge_10_3_0_0
   - 0.262261 edge_10_4_0_0 + 0.2546036047657495 edge_10_5_0_0
   - 0.1234942797472215 edge_10_6_0_0 + 3.0894151135558 edge_10_7_0_0
   + 3.4092168959035 edge_10_8_0_0 + 4.1935525476102 edge_10_9_0_0
   + 0.44721785118892 edge_10_12_0_0 + 1.4044219531335 edge_10_13_0_0
   - 0.2916274816056561 edge_10_14_0_0 + 1.74871 edge_10_15_0_0
   + 1.4436276744285 edge_10_16_0_0 + 1.4917096419896 edge_10_18_0_0
   + 0.36925895568892 edge_10_20_0_0 + 0.66990358634684 edge_10_21_0_0
   + 0.1807555287388386 edge_12_6_0_0 + 0.4771545316590796 edge_12_8_0_0
   + 0.9533716158657181 edge_12_13_0_0 - 0.3798446401884344 edge_12_18_0_0
   - 0.0837559097716596 edge_12_20_0_0 - 1.322338496098673 edge_13_7_0_0
   - 0.0745761114661134 edge_13_8_0_0 + 1.203553856168704 edge_13_12_0_0
   + 1.6141877640266 edge_13_15_0_0 + 0.7066093558256121 edge_13_16_0_0
   + 0.3321062879978617 edge_13_18_0_0 - 0.4174606130487904 edge_13_20_0_0
   - 0.1387779230684704 edge_13_21_0_0 + 0.1688703864076451 edge_14_8_0_0
   + 0.4740772349660289 edge_14_15_0_0 + 0.1353641884834091 edge_14_16_0_0
   + 0.3704616314619454 edge_14_18_0_0 - 0.5316243193628433 edge_14_19_0_0
   - 0.3266381459214799 edge_14_20_0_0 - 2.6866895675379 edge_15_1_0_0
   - 0.967612 edge_15_3_0_0 - 0.960278 edge_15_4_0_0
   - 0.958676803947631 edge_15_5_0_0 + 0.03645981026753 edge_15_6_0_0
   + 0.23604039357222 edge_15_7_0_0 + 0.9868615236642699 edge_15_8_0_0
   + 0.7699964003352 edge_15_9_0_0 + 0.0227323 edge_15_10_0_0
   + 1.961160372162 edge_15_12_0_0 + 3.4799505040006 edge_15_13_0_0
   + 1.645807062100106 edge_15_14_0_0 + 1.8953537717817 edge_15_16_0_0
   + 1.1816797163968 edge_15_18_0_0 - 0.483393445037961 edge_15_19_0_0
   + 0.86981189562256 edge_15_20_0_0 + 0.9571689591909999 edge_15_21_0_0
   - 0.2299437067469305 edge_16_14_0_0 - 0.3440007203181052 edge_16_15_0_0
   - 0.1519941381264719 edge_16_18_0_0 - 0.1260220711736626 edge_16_19_0_0
   + 0.1056491683804689 edge_16_20_0_0 - 0.2963574514997995 edge_18_1_0_0
   - 0.0710551342156517 edge_18_2_0_0 - 0.6326910491398641 edge_18_3_0_0
   - 0.5236600889820419 edge_18_4_0_0 + 0.2424734065757377 edge_18_5_0_0
   - 0.2333464520911346 edge_18_6_0_0 + 0.8763915973597657 edge_18_7_0_0
   + 0.8447269202017723 edge_18_8_0_0 + 0.5183221022670325 edge_18_9_0_0
   + 0.2784445641988462 edge_18_10_0_0 + 0.0272520731497479 edge_18_12_0_0
   - 0.676196333799141 edge_18_13_0_0 + 1.518249885748044 edge_18_14_0_0
   + 1.906399712267053 edge_18_15_0_0 + 0.53525497376225 edge_18_16_0_0
   + 4.00213382985885 edge_18_17_0_0 + 0.0558072135429682 edge_18_19_0_0
   + 3.13695887069449 edge_18_20_0_0 + 1.203145605946185 edge_18_21_0_0
   + 0.4663181714680626 edge_19_20_0_0 + 0.1626017669603551 edge_19_21_0_0
   - 0.2123351188799826 edge_20_12_0_0 - 0.6070698037240748 edge_20_13_0_0
   - 0.0864485471358856 edge_20_14_0_0 - 0.62416192510056 edge_20_15_0_0
   + 0.2829058136839983 edge_20_16_0_0 + 2.049081771521358 edge_20_17_0_0
   + 1.152589585067633 edge_20_18_0_0 + 1.205255411788929 edge_20_19_0_0
   + 0.7537226712848787 edge_20_21_0_0
Subject To
 one_parent_1: edge_0_1_0_0 + edge_2_1_0_0 + edge_3_1_0_0 + edge_4_1_0_0
   + edge_5_1_0_0 + edge_6_1_0_0 + edge_8_1_0_0 + edge_10_1_0_0
   + edge_15_1_0_0 + edge_18_1_0_0 = 1
 consume_one_flow_unit_1: flow_0_1_0_0 - flow_1_2_0_0 - flow_1_3_0_0
   - flow_1_4_0_0 - flow_1_5_0_0 - flow_1_6_0_0 + flow_2_1_0_0
   + flow_3_1_0_0 + flow_4_1_0_0 + flow_5_1_0_0 + flow_6_1_0_0
   + flow_8_1_0_0 + flow_10_1_0_0 + flow_15_1_0_0 + flow_18_1_0_0 = 1
 one_parent_2: edge_0_2_0_0 + edge_1_2_0_0 + edge_3_2_0_0 + edge_4_2_0_0
   + edge_5_2_0_0 + edge_6_2_0_0 + edge_7_2_0_0 + edge_8_2_0_0
   + edge_10_2_0_0 + edge_18_2_0_0 = 1
 consume_one_flow_unit_2: flow_0_2_0_0 + flow_1_2_0_0 - flow_2_1_0_0
   - flow_2_3_0_0 - flow_2_4_0_0 - flow_2_5_0_0 - flow_2_6_0_0
   - flow_2_7_0_0 - flow_2_8_0_0 - flow_2_9_0_0 - flow_2_10_0_0
   - flow_2_15_0_0 - flow_2_16_0_0 - flow_2_18_0_0 - flow_2_20_0_0
   - flow_2_21_0_0 + flow_3_2_0_0 + flow_4_2_0_0 + flow_5_2_0_0
   + flow_6_2_0_0 + flow_7_2_0_0 + flow_8_2_0_0 + flow_10_2_0_0
   + flow_18_2_0_0 = 1
 one_parent_3: edge_0_3_0_0 + edge_1_3_0_0 + edge_2_3_0_0 + edge_4_3_0_0
   + edge_5_3_0_0 + edge_6_3_0_0 + edge_8_3_0_0 + edge_10_3_0_0
   + edge_15_3_0_0 + edge_18_3_0_0 = 1
 consume_one_flow_unit_3: flow_0_3_0_0 + flow_1_3_0_0 + flow_2_3_0_0
   - flow_3_1_0_0 - flow_3_2_0_0 - flow_3_4_0_0 - flow_3_5_0_0
   - flow_3_6_0_0 - flow_3_7_0_0 - flow_3_8_0_0 - flow_3_10_0_0
   - flow_3_12_0_0 - flow_3_13_0_0 - flow_3_15_0_0 - flow_3_16_0_0
   - flow_3_18_0_0 - flow_3_20_0_0 - flow_3_21_0_0 + flow_4_3_0_0
   + flow_5_3_0_0 + flow_6_3_0_0 + flow_8_3_0_0 + flow_10_3_0_0
   + flow_15_3_0_0 + flow_18_3_0_0 = 1
 one_parent_4: edge_0_4_0_0 + edge_1_4_0_0 + edge_2_4_0_0 + edge_3_4_0_0
   + edge_5_4_0_0 + edge_6_4_0_0 + edge_8_4_0_0 + edge_10_4_0_0
   + edge_15_4_0_0 + edge_18_4_0_0 = 1
 consume_one_flow_unit_4: flow_0_4_0_0 + flow_1_4_0_0 + flow_2_4_0_0
   + flow_3_4_0_0 - flow_4_1_0_0 - flow_4_2_0_0 - flow_4_3_0_0
   - flow_4_5_0_0 - flow_4_6_0_0 - flow_4_7_0_0 - flow_4_8_0_0
   - flow_4_9_0_0 - flow_4_10_0_0 - flow_4_12_0_0 - flow_4_13_0_0
   - flow_4_15_0_0 - flow_4_16_0_0 - flow_4_18_0_0 - flow_4_20_0_0
   - flow_4_21_0_0 + flow_5_4_0_0 + flow_6_4_0_0 + flow_8_4_0_0
   + flow_10_4_0_0 + flow_15_4_0_0 + flow_18_4_0_0 = 1
 one_parent_5: edge_0_5_0_0 + edge_1_5_0_0 + edge_2_5_0_0 + edge_3_5_0_0
   + edge_4_5_0_0 + edge_6_5_0_0 + edge_7_5_0_0 + edge_8_5_0_0
   + edge_10_5_0_0 + edge_15_5_0_0 + edge_18_5_0_0 = 1
 consume_one_flow_unit_5: flow_0_5_0_0 + flow_1_5_0_0 + flow_2_5_0_0
   + flow_3_5_0_0 + flow_4_5_0_0 - flow_5_1_0_0 - flow_5_2_0_0
   - flow_5_3_0_0 - flow_5_4_0_0 - flow_5_6_0_0 - flow_5_7_0_0
   - flow_5_8_0_0 - flow_5_9_0_0 - flow_5_10_0_0 - flow_5_13_0_0
   - flow_5_14_0_0 - flow_5_15_0_0 - flow_5_19_0_0 - flow_5_20_0_0
   + flow_6_5_0_0 + flow_7_5_0_0 + flow_8_5_0_0 + flow_10_5_0_0
   + flow_15_5_0_0 + flow_18_5_0_0 = 1
 one_parent_6: edge_0_6_0_0 + edge_1_6_0_0 + edge_2_6_0_0 + edge_3_6_0_0
   + edge_4_6_0_0 + edge_5_6_0_0 + edge_7_6_0_0 + edge_8_6_0_0
   + edge_10_6_0_0 + edge_12_6_0_0 + edge_15_6_0_0 + edge_18_6_0_0 = 1
 consume_one_flow_unit_6: flow_0_6_0_0 + flow_1_6_0_0 + flow_2_6_0_0
   + flow_3_6_0_0 + flow_4_6_0_0 + flow_5_6_0_0 - flow_6_1_0_0
   - flow_6_2_0_0 - flow_6_3_0_0 - flow_6_4_0_0 - flow_6_5_0_0
   - flow_6_7_0_0 - flow_6_8_0_0 - flow_6_9_0_0 - flow_6_10_0_0
   - flow_6_14_0_0 - flow_6_15_0_0 - flow_6_16_0_0 - flow_6_18_0_0
   - flow_6_19_0_0 - flow_6_20_0_0 - flow_6_21_0_0 + flow_7_6_0_0
   + flow_8_6_0_0 + flow_10_6_0_0 + flow_12_6_0_0 + flow_15_6_0_0
   + flow_18_6_0_0 = 1
 one_parent_7: edge_2_7_0_0 + edge_3_7_0_0 + edge_4_7_0_0 + edge_5_7_0_0
   + edge_6_7_0_0 + edge_8_7_0_0 + edge_9_7_0_0 + edge_10_7_0_0
   + edge_13_7_0_0 + edge_15_7_0_0 + edge_18_7_0_0 = 1
 consume_one_flow_unit_7: flow_2_7_0_0 + flow_3_7_0_0 + flow_4_7_0_0
   + flow_5_7_0_0 + flow_6_7_0_0 - flow_7_2_0_0 - flow_7_5_0_0
   - flow_7_6_0_0 - flow_7_8_0_0 - flow_7_9_0_0 - flow_7_10_0_0
   - flow_7_12_0_0 - flow_7_13_0_0 - flow_7_14_0_0 - flow_7_15_0_0
   - flow_7_18_0_0 - flow_7_19_0_0 + flow_8_7_0_0 + flow_9_7_0_0
   + flow_10_7_0_0 + flow_13_7_0_0 + flow_15_7_0_0 + flow_18_7_0_0 = 1
 one_parent_8: edge_2_8_0_0 + edge_3_8_0_0 + edge_4_8_0_0 + edge_5_8_0_0
   + edge_6_8_0_0 + edge_7_8_0_0 + edge_9_8_0_0 + edge_10_8_0_0
   + edge_12_8_0_0 + edge_13_8_0_0 + edge_14_8_0_0 + edge_15_8_0_0
   + edge_18_8_0_0 = 1
 consume_one_flow_unit_8: flow_2_8_0_0 + flow_3_8_0_0 + flow_4_8_0_0
   + flow_5_8_0_0 + flow_6_8_0_0 + flow_7_8_0_0 - flow_8_1_0_0
   - flow_8_2_0_0 - flow_8_3_0_0 - flow_8_4_0_0 - flow_8_5_0_0
   - flow_8_6_0_0 - flow_8_7_0_0 - flow_8_9_0_0 - flow_8_10_0_0
   - flow_8_12_0_0 - flow_8_13_0_0 - flow_8_14_0_0 - flow_8_15_0_0
   - flow_8_16_0_0 - flow_8_18_0_0 - flow_8_19_0_0 - flow_8_20_0_0
   - flow_8_21_0_0 + flow_9_8_0_0 + flow_10_8_0_0 + flow_12_8_0_0
   + flow_13_8_0_0 + flow_14_8_0_0 + flow_15_8_0_0 + flow_18_8_0_0 = 1
 one_parent_9: edge_2_9_0_0 + edge_4_9_0_0 + edge_5_9_0_0 + edge_6_9_0_0
   + edge_7_9_0_0 + edge_8_9_0_0 + edge_10_9_0_0 + edge_15_9_0_0
   + edge_18_9_0_0 = 1
 consume_one_flow_unit_9: flow_2_9_0_0 + flow_4_9_0_0 + flow_5_9_0_0
   + flow_6_9_0_0 + flow_7_9_0_0 + flow_8_9_0_0 - flow_9_7_0_0
   - flow_9_8_0_0 + flow_10_9_0_0 + flow_15_9_0_0 + flow_18_9_0_0 = 1
 one_parent_10: edge_0_10_0_0 + edge_2_10_0_0 + edge_3_10_0_0
   + edge_4_10_0_0 + edge_5_10_0_0 + edge_6_10_0_0 + edge_7_10_0_0
   + edge_8_10_0_0 + edge_15_10_0_0 + edge_18_10_0_0 = 1
 consume_one_flow_unit_10: flow_0_10_0_0 + flow_2_10_0_0 + flow_3_10_0_0
   + flow_4_10_0_0 + flow_5_10_0_0 + flow_6_10_0_0 + flow_7_10_0_0
   + flow_8_10_0_0 - flow_10_1_0_0 - flow_10_2_0_0 - flow_10_3_0_0
   - flow_10_4_0_0 - flow_10_5_0_0 - flow_10_6_0_0 - flow_10_7_0_0
   - flow_10_8_0_0 - flow_10_9_0_0 - flow_10_12_0_0 - flow_10_13_0_0
   - flow_10_14_0_0 - flow_10_15_0_0 - flow_10_16_0_0 - flow_10_18_0_0
   - flow_10_20_0_0 - flow_10_21_0_0 + flow_15_10_0_0 + flow_18_10_0_0 = 1
 one_parent_11: = 1
 consume_one_flow_unit_11: = 1
 one_parent_12: edge_3_12_0_0 + edge_4_12_0_0 + edge_7_12_0_0
   + edge_8_12_0_0 + edge_10_12_0_0 + edge_13_12_0_0 + edge_15_12_0_0
   + edge_18_12_0_0 + edge_20_12_0_0 = 1
 consume_one_flow_unit_12: flow_3_12_0_0 + flow_4_12_0_0 + flow_7_12_0_0
   + flow_8_12_0_0 + flow_10_12_0_0 - flow_12_6_0_0 - flow_12_8_0_0
   - flow_12_13_0_0 - flow_12_18_0_0 - flow_12_20_0_0 + flow_13_12_0_0
   + flow_15_12_0_0 + flow_18_12_0_0 + flow_20_12_0_0 = 1
 one_parent_13: edge_3_13_0_0 + edge_4_13_0_0 + edge_5_13_0_0
   + edge_7_13_0_0 + edge_8_13_0_0 + edge_10_13_0_0 + edge_12_13_0_0
   + edge_15_13_0_0 + edge_18_13_0_0 + edge_20_13_0_0 = 1
 consume_one_flow_unit_13: flow_3_13_0_0 + flow_4_13_0_0 + flow_5_13_0_0
   + flow_7_13_0_0 + flow_8_13_0_0 + flow_10_13_0_0 + flow_12_13_0_0
   - flow_13_7_0_0 - flow_13_8_0_0 - flow_13_12_0_0 - flow_13_15_0_0
   - flow_13_16_0_0 - flow_13_18_0_0 - flow_13_20_0_0 - flow_13_21_0_0
   + flow_15_13_0_0 + flow_18_13_0_0 + flow_20_13_0_0 = 1
 one_parent_14: edge_5_14_0_0 + edge_6_14_0_0 + edge_7_14_0_0
   + edge_8_14_0_0 + edge_10_14_0_0 + edge_15_14_0_0 + edge_16_14_0_0
   + edge_18_14_0_0 + edge_20_14_0_0 = 1
 consume_one_flow_unit_14: flow_5_14_0_0 + flow_6_14_0_0 + flow_7_14_0_0
   + flow_8_14_0_0 + flow_10_14_0_0 - flow_14_8_0_0 - flow_14_15_0_0
   - flow_14_16_0_0 - flow_14_18_0_0 - flow_14_19_0_0 - flow_14_20_0_0
   + flow_15_14_0_0 + flow_16_14_0_0 + flow_18_14_0_0 + flow_20_14_0_0 = 1
 one_parent_15: edge_2_15_0_0 + edge_3_15_0_0 + edge_4_15_0_0
   + edge_5_15_0_0 + edge_6_15_0_0 + edge_7_15_0_0 + edge_8_15_0_0
   + edge_10_15_0_0 + edge_13_15_0_0 + edge_14_15_0_0 + edge_16_15_0_0
   + edge_18_15_0_0 + edge_20_15_0_0 = 1
 consume_one_flow_unit_15: flow_2_15_0_0 + flow_3_15_0_0 + flow_4_15_0_0
   + flow_5_15_0_0 + flow_6_15_0_0 + flow_7_15_0_0 + flow_8_15_0_0
   + flow_10_15_0_0 + flow_13_15_0_0 + flow_14_15_0_0 - flow_15_1_0_0
   - flow_15_3_0_0 - flow_15_4_0_0 - flow_15_5_0_0 - flow_15_6_0_0
   - flow_15_7_0_0 - flow_15_8_0_0 - flow_15_9_0_0 - flow_15_10_0_0
   - flow_15_12_0_0 - flow_15_13_0_0 - flow_15_14_0_0 - flow_15_16_0_0
   - flow_15_18_0_0 - flow_15_19_0_0 - flow_15_20_0_0 - flow_15_21_0_0
   + flow_16_15_0_0 + flow_18_15_0_0 + flow_20_15_0_0 = 1
 one_parent_16: edge_2_16_0_0 + edge_3_16_0_0 + edge_4_16_0_0
   + edge_6_16_0_0 + edge_8_16_0_0 + edge_10_16_0_0 + edge_13_16_0_0
   + edge_14_16_0_0 + edge_15_16_0_0 + edge_18_16_0_0 + edge_20_16_0_0 = 1
 consume_one_flow_unit_16: flow_2_16_0_0 + flow_3_16_0_0 + flow_4_16_0_0
   + flow_6_16_0_0 + flow_8_16_0_0 + flow_10_16_0_0 + flow_13_16_0_0
   + flow_14_16_0_0 + flow_15_16_0_0 - flow_16_14_0_0 - flow_16_15_0_0
   - flow_16_18_0_0 - flow_16_19_0_0 - flow_16_20_0_0 + flow_18_16_0_0
   + flow_20_16_0_0 = 1
 one_parent_17: edge_18_17_0_0 + edge_20_17_0_0 = 1
 consume_one_flow_unit_17: flow_18_17_0_0 + flow_20_17_0_0 = 1
 one_parent_18: edge_2_18_0_0 + edge_3_18_0_0 + edge_4_18_0_0
   + edge_6_18_0_0 + edge_7_18_0_0 + edge_8_18_0_0 + edge_10_18_0_0
   + edge_12_18_0_0 + edge_13_18_0_0 + edge_14_18_0_0 + edge_15_18_0_0
   + edge_16_18_0_0 + edge_20_18_0_0 = 1
 consume_one_flow_unit_18: flow_2_18_0_0 + flow_3_18_0_0 + flow_4_18_0_0
   + flow_6_18_0_0 + flow_7_18_0_0 + flow_8_18_0_0 + flow_10_18_0_0
   + flow_12_18_0_0 + flow_13_18_0_0 + flow_14_18_0_0 + flow_15_18_0_0
   + flow_16_18_0_0 - flow_18_1_0_0 - flow_18_2_0_0 - flow_18_3_0_0
   - flow_18_4_0_0 - flow_18_5_0_0 - flow_18_6_0_0 - flow_18_7_0_0
   - flow_18_8_0_0 - flow_18_9_0_0 - flow_18_10_0_0 - flow_18_12_0_0
   - flow_18_13_0_0 - flow_18_14_0_0 - flow_18_15_0_0 - flow_18_16_0_0
   - flow_18_17_0_0 - flow_18_19_0_0 - flow_18_20_0_0 - flow_18_21_0_0
   + flow_20_18_0_0 = 1
 one_parent_19: edge_5_19_0_0 + edge_6_19_0_0 + edge_7_19_0_0
   + edge_8_19_0_0 + edge_14_19_0_0 + edge_15_19_0_0 + edge_16_19_0_0
   + edge_18_19_0_0 + edge_20_19_0_0 = 1
 consume_one_flow_unit_19: flow_5_19_0_0 + flow_6_19_0_0 + flow_7_19_0_0
   + flow_8_19_0_0 + flow_14_19_0_0 + flow_15_19_0_0 + flow_16_19_0_0
   + flow_18_19_0_0 - flow_19_20_0_0 - flow_19_21_0_0 + flow_20_19_0_0 = 1
 one_parent_20: edge_2_20_0_0 + edge_3_20_0_0 + edge_4_20_0_0
   + edge_5_20_0_0 + edge_6_20_0_0 + edge_8_20_0_0 + edge_10_20_0_0
   + edge_12_20_0_0 + edge_13_20_0_0 + edge_14_20_0_0 + edge_15_20_0_0
   + edge_16_20_0_0 + edge_18_20_0_0 + edge_19_20_0_0 = 1
 consume_one_flow_unit_20: flow_2_20_0_0 + flow_3_20_0_0 + flow_4_20_0_0
   + flow_5_20_0_0 + flow_6_20_0_0 + flow_8_20_0_0 + flow_10_20_0_0
   + flow_12_20_0_0 + flow_13_20_0_0 + flow_14_20_0_0 + flow_15_20_0_0
   + flow_16_20_0_0 + flow_18_20_0_0 + flow_19_20_0_0 - flow_20_12_0_0
   - flow_20_13_0_0 - flow_20_14_0_0 - flow_20_15_0_0 - flow_20_16_0_0
   - flow_20_17_0_0 - flow_20_18_0_0 - flow_20_19_0_0 - flow_20_21_0_0 = 1
 one_parent_21: edge_2_21_0_0 + edge_3_21_0_0 + edge_4_21_0_0
   + edge_6_21_0_0 + edge_8_21_0_0 + edge_10_21_0_0 + edge_13_21_0_0
   + edge_15_21_0_0 + edge_18_21_0_0 + edge_19_21_0_0 + edge_20_21_0_0 = 1
 consume_one_flow_unit_21: flow_2_21_0_0 + flow_3_21_0_0 + flow_4_21_0_0
   + flow_6_21_0_0 + flow_8_21_0_0 + flow_10_21_0_0 + flow_13_21_0_0
   + flow_15_21_0_0 + flow_18_21_0_0 + flow_19_21_0_0 + flow_20_21_0_0 = 1
 root_flow: flow_0_1_0_0 + flow_0_2_0_0 + flow_0_3_0_0 + flow_0_4_0_0
   + flow_0_5_0_0 + flow_0_6_0_0 + flow_0_10_0_0 = 21
 inactive_no_flow_0_1_0_0: flow_0_1_0_0 - 1000 edge_0_1_0_0 <= 0
 inactive_no_flow_0_2_0_0: flow_0_2_0_0 - 1000 edge_0_2_0_0 <= 0
 inactive_no_flow_0_3_0_0: flow_0_3_0_0 - 1000 edge_0_3_0_0 <= 0
 inactive_no_flow_0_4_0_0: flow_0_4_0_0 - 1000 edge_0_4_0_0 <= 0
 inactive_no_flow_0_5_0_0: flow_0_5_0_0 - 1000 edge_0_5_0_0 <= 0
 inactive_no_flow_0_6_0_0: flow_0_6_0_0 - 1000 edge_0_6_0_0 <= 0
 inactive_no_flow_0_10_0_0: flow_0_10_0_0 - 1000 edge_0_10_0_0 <= 0
 inactive_no_flow_1_2_0_0: flow_1_2_0_0 - 1000 edge_1_2_0_0 <= 0
 inactive_no_flow_1_3_0_0: flow_1_3_0_0 - 1000 edge_1_3_0_0 <= 0
 inactive_no_flow_1_4_0_0: flow_1_4_0_0 - 1000 edge_1_4_0_0 <= 0
 inactive_no_flow_1_5_0_0: flow_1_5_0_0 - 1000 edge_1_5_0_0 <= 0
 inactive_no_flow_1_6_0_0: flow_1_6_0_0 - 1000 edge_1_6_0_0 <= 0
 inactive_no_flow_2_1_0_0: flow_2_1_0_0 - 1000 edge_2_1_0_0 <= 0
 inactive_no_flow_2_3_0_0: flow_2_3_0_0 - 1000 edge_2_3_0_0 <= 0
 inactive_no_flow_2_4_0_0: flow_2_4_0_0 - 1000 edge_2_4_0_0 <= 0
 inactive_no_flow_2_5_0_0: flow_2_5_0_0 - 1000 edge_2_5_0_0 <= 0
 inactive_no_flow_2_6_0_0: flow_2_6_0_0 - 1000 edge_2_6_0_0 <= 0
 inactive_no_flow_2_7_0_0: flow_2_7_0_0 - 1000 edge_2_7_0_0 <= 0
 inactive_no_flow_2_8_0_0: flow_2_8_0_0 - 1000 edge_2_8_0_0 <= 0
 inactive_no_flow_2_9_0_0: flow_2_9_0_0 - 1000 edge_2_9_0_0 <= 0
 inactive_no_flow_2_10_0_0: flow_2_10_0_0 - 1000 edge_2_10_0_0 <= 0
 inactive_no_flow_2_15_0_0: flow_2_15_0_0 - 1000 edge_2_15_0_0 <= 0
 inactive_no_flow_2_16_0_0: flow_2_16_0_0 - 1000 edge_2_16_0_0 <= 0
 inactive_no_flow_2_18_0_0: flow_2_18_0_0 - 1000 edge_2_18_0_0 <= 0
 inactive_no_flow_2_20_0_0: flow_2_20_0_0 - 1000 edge_2_20_0_0 <= 0
 inactive_no_flow_2_21_0_0: flow_2_21_0_0 - 1000 edge_2_21_0_0 <= 0
 inactive_no_flow_3_1_0_0: flow_3_1_0_0 - 1000 edge_3_1_0_0 <= 0
 inactive_no_flow_3_2_0_0: flow_3_2_0_0 - 1000 edge_3_2_0_0 <= 0
 inactive_no_flow_3_4_0_0: flow_3_4_0_0 - 1000 edge_3_4_0_0 <= 0
 inactive_no_flow_3_5_0_0: flow_3_5_0_0 - 1000 edge_3_5_0_0 <= 0
 inactive_no_flow_3_6_0_0: flow_3_6_0_0 - 1000 edge_3_6_0_0 <= 0
 inactive_no_flow_3_7_0_0: flow_3_7_0_0 - 1000 edge_3_7_0_0 <= 0
 inactive_no_flow_3_8_0_0: flow_3_8_0_0 - 1000 edge_3_8_0_0 <= 0
 inactive_no_flow_3_10_0_0: flow_3_10_0_0 - 1000 edge_3_10_0_0 <= 0
 inactive_no_flow_3_12_0_0: flow_3_12_0_0 - 1000 edge_3_12_0_0 <= 0
 inactive_no_flow_3_13_0_0: flow_3_13_0_0 - 1000 edge_3_13_0_0 <= 0
 inactive_no_flow_3_15_0_0: flow_3_15_0_0 - 1000 edge_3_15_0_0 <= 0
 inactive_no_flow_3_16_0_0: flow_3_16_0_0 - 1000 edge_3_16_0_0 <= 0
 inactive_no_flow_3_18_0_0: flow_3_18_0_0 - 1000 edge_3_18_0_0 <= 0
 inactive_no_flow_3_20_0_0: flow_3_20_0_0 - 1000 edge_3_20_0_0 <= 0
 inactive_no_flow_3_21_0_0: flow_3_21_0_0 - 1000 edge_3_21_0_0 <= 0
 inactive_no_flow_4_1_0_0: flow_4_1_0_0 - 1000 edge_4_1_0_0 <= 0
 inactive_no_flow_4_2_0_0: flow_4_2_0_0 - 1000 edge_4_2_0_0 <= 0
 inactive_no_flow_4_3_0_0: flow_4_3_0_0 - 1000 edge_4_3_0_0 <= 0
 inactive_no_flow_4_5_0_0: flow_4_5_0_0 - 1000 edge_4_5_0_0 <= 0
 inactive_no_flow_4_6_0_0: flow_4_6_0_0 - 1000 edge_4_6_0_0 <= 0
 inactive_no_flow_4_7_0_0: flow_4_7_0_0 - 1000 edge_4_7_0_0 <= 0
 inactive_no_flow_4_8_0_0: flow_4_8_0_0 - 1000 edge_4_8_0_0 <= 0
 inactive_no_flow_4_9_0_0: flow_4_9_0_0 - 1000 edge_4_9_0_0 <= 0
 inactive_no_flow_4_10_0_0: flow_4_10_0_0 - 1000 edge_4_10_0_0 <= 0
 inactive_no_flow_4_12_0_0: flow_4_12_0_0 - 1000 edge_4_12_0_0 <= 0
 inactive_no_flow_4_13_0_0: flow_4_13_0_0 - 1000 edge_4_13_0_0 <= 0
 inactive_no_flow_4_15_0_0: flow_4_15_0_0 - 1000 edge_4_15_0_0 <= 0
 inactive_no_flow_4_16_0_0: flow_4_16_0_0 - 1000 edge_4_16_0_0 <= 0
 inactive_no_flow_4_18_0_0: flow_4_18_0_0 - 1000 edge_4_18_0_0 <= 0
 inactive_no_flow_4_20_0_0: flow_4_20_0_0 - 1000 edge_4_20_0_0 <= 0
 inactive_no_flow_4_21_0_0: flow_4_21_0_0 - 1000 edge_4_21_0_0 <= 0
 inactive_no_flow_5_1_0_0: flow_5_1_0_0 - 1000 edge_5_1_0_0 <= 0
 inactive_no_flow_5_2_0_0: flow_5_2_0_0 - 1000 edge_5_2_0_0 <= 0
 inactive_no_flow_5_3_0_0: flow_5_3_0_0 - 1000 edge_5_3_0_0 <= 0
 inactive_no_flow_5_4_0_0: flow_5_4_0_0 - 1000 edge_5_4_0_0 <= 0
 inactive_no_flow_5_6_0_0: flow_5_6_0_0 - 1000 edge_5_6_0_0 <= 0
 inactive_no_flow_5_7_0_0: flow_5_7_0_0 - 1000 edge_5_7_0_0 <= 0
 inactive_no_flow_5_8_0_0: flow_5_8_0_0 - 1000 edge_5_8_0_0 <= 0
 inactive_no_flow_5_9_0_0: flow_5_9_0_0 - 1000 edge_5_9_0_0 <= 0
 inactive_no_flow_5_10_0_0: flow_5_10_0_0 - 1000 edge_5_10_0_0 <= 0
 inactive_no_flow_5_13_0_0: flow_5_13_0_0 - 1000 edge_5_13_0_0 <= 0
 inactive_no_flow_5_14_0_0: flow_5_14_0_0 - 1000 edge_5_14_0_0 <= 0
 inactive_no_flow_5_15_0_0: flow_5_15_0_0 - 1000 edge_5_15_0_0 <= 0
 inactive_no_flow_5_19_0_0: flow_5_19_0_0 - 1000 edge_5_19_0_0 <= 0
 inactive_no_flow_5_20_0_0: flow_5_20_0_0 - 1000 edge_5_20_0_0 <= 0
 inactive_no_flow_6_1_0_0: flow_6_1_0_0 - 1000 edge_6_1_0_0 <= 0
 inactive_no_flow_6_2_0_0: flow_6_2_0_0 - 1000 edge_6_2_0_0 <= 0
 inactive_no_flow_6_3_0_0: flow_6_3_0_0 - 1000 edge_6_3_0_0 <= 0
 inactive_no_flow_6_4_0_0: flow_6_4_0_0 - 1000 edge_6_4_0_0 <= 0
 inactive_no_flow_6_5_0_0: flow_6_5_0_0 - 1000 edge_6_5_0_0 <= 0
 inactive_no_flow_6_7_0_0: flow_6_7_0_0 - 1000 edge_6_7_0_0 <= 0
 inactive_no_flow_6_8_0_0: flow_6_8_0_0 - 1000 edge_6_8_0_0 <= 0
 inactive_no_flow_6_9_0_0: flow_6_9_0_0 - 1000 edge_6_9_0_0 <= 0
 inactive_no_flow_6_10_0_0: flow_6_10_0_0 - 1000 edge_6_10_0_0 <= 0
 inactive_no_flow_6_14_0_0: flow_6_14_0_0 - 1000 edge_6_14_0_0 <= 0
 inactive_no_flow_6_15_0_0: flow_6_15_0_0 - 1000 edge_6_15_0_0 <= 0
 inactive_no_flow_6_16_0_0: flow_6_16_0_0 - 1000 edge_6_16_0_0 <= 0
 inactive_no_flow_6_18_0_0: flow_6_18_0_0 - 1000 edge_6_18_0_0 <= 0
 inactive_no_flow_6_19_0_0: flow_6_19_0_0 - 1000 edge_6_19_0_0 <= 0
 inactive_no_flow_6_20_0_0: flow_6_20_0_0 - 1000 edge_6_20_0_0 <= 0
 inactive_no_flow_6_21_0_0: flow_6_21_0_0 - 1000 edge_6_21_0_0 <= 0
 inactive_no_flow_7_2_0_0: flow_7_2_0_0 - 1000 edge_7_2_0_0 <= 0
 inactive_no_flow_7_5_0_0: flow_7_5_0_0 - 1000 edge_7_5_0_0 <= 0
 inactive_no_flow_7_6_0_0: flow_7_6_0_0 - 1000 edge_7_6_0_0 <= 0
 inactive_no_flow_7_8_0_0: flow_7_8_0_0 - 1000 edge_7_8_0_0 <= 0
 inactive_no_flow_7_9_0_0: flow_7_9_0_0 - 1000 edge_7_9_0_0 <= 0
 inactive_no_flow_7_10_0_0: flow_7_10_0_0 - 1000 edge_7_10_0_0 <= 0
 inactive_no_flow_7_12_0_0: flow_7_12_0_0 - 1000 edge_7_12_0_0 <= 0
 inactive_no_flow_7_13_0_0: flow_7_13_0_0 - 1000 edge_7_13_0_0 <= 0
 inactive_no_flow_7_14_0_0: flow_7_14_0_0 - 1000 edge_7_14_0_0 <= 0
 inactive_no_flow_7_15_0_0: flow_7_15_0_0 - 1000 edge_7_15_0_0 <= 0
 inactive_no_flow_7_18_0_0: flow_7_18_0_0 - 1000 edge_7_18_0_0 <= 0
 inactive_no_flow_7_19_0_0: flow_7_19_0_0 - 1000 edge_7_19_0_0 <= 0
 inactive_no_flow_8_1_0_0: flow_8_1_0_0 - 1000 edge_8_1_0_0 <= 0
 inactive_no_flow_8_2_0_0: flow_8_2_0_0 - 1000 edge_8_2_0_0 <= 0
 inactive_no_flow_8_3_0_0: flow_8_3_0_0 - 1000 edge_8_3_0_0 <= 0
 inactive_no_flow_8_4_0_0: flow_8_4_0_0 - 1000 edge_8_4_0_0 <= 0
 inactive_no_flow_8_5_0_0: flow_8_5_0_0 - 1000 edge_8_5_0_0 <= 0
 inactive_no_flow_8_6_0_0: flow_8_6_0_0 - 1000 edge_8_6_0_0 <= 0
 inactive_no_flow_8_7_0_0: flow_8_7_0_0 - 1000 edge_8_7_0_0 <= 0
 inactive_no_flow_8_9_0_0: flow_8_9_0_0 - 1000 edge_8_9_0_0 <= 0
 inactive_no_flow_8_10_0_0: flow_8_10_0_0 - 1000 edge_8_10_0_0 <= 0
 inactive_no_flow_8_12_0_0: flow_8_12_0_0 - 1000 edge_8_12_0_0 <= 0
 inactive_no_flow_8_13_0_0: flow_8_13_0_0 - 1000 edge_8_13_0_0 <= 0
 inactive_no_flow_8_14_0_0: flow_8_14_0_0 - 1000 edge_8_14_0_0 <= 0
 inactive_no_flow_8_15_0_0: flow_8_15_0_0 - 1000 edge_8_15_0_0 <= 0
 inactive_no_flow_8_16_0_0: flow_8_16_0_0 - 1000 edge_8_16_0_0 <= 0
 inactive_no_flow_8_18_0_0: flow_8_18_0_0 - 1000 edge_8_18_0_0 <= 0
 inactive_no_flow_8_19_0_0: flow_8_19_0_0 - 1000 edge_8_19_0_0 <= 0
 inactive_no_flow_8_20_0_0: flow_8_20_0_0 - 1000 edge_8_20_0_0 <= 0
 inactive_no_flow_8_21_0_0: flow_8_21_0_0 - 1000 edge_8_21_0_0 <= 0
 inactive_no_flow_9_7_0_0: flow_9_7_0_0 - 1000 edge_9_7_0_0 <= 0
 inactive_no_flow_9_8_0_0: flow_9_8_0_0 - 1000 edge_9_8_0_0 <= 0
 inactive_no_flow_10_1_0_0: flow_10_1_0_0 - 1000 edge_10_1_0_0 <= 0
 inactive_no_flow_10_2_0_0: flow_10_2_0_0 - 1000 edge_10_2_0_0 <= 0
 inactive_no_flow_10_3_0_0: flow_10_3_0_0 - 1000 edge_10_3_0_0 <= 0
 inactive_no_flow_10_4_0_0: flow_10_4_0_0 - 1000 edge_10_4_0_0 <= 0
 inactive_no_flow_10_5_0_0: flow_10_5_0_0 - 1000 edge_10_5_0_0 <= 0
 inactive_no_flow_10_6_0_0: flow_10_6_0_0 - 1000 edge_10_6_0_0 <= 0
 inactive_no_flow_10_7_0_0: flow_10_7_0_0 - 1000 edge_10_7_0_0 <= 0
 inactive_no_flow_10_8_0_0: flow_10_8_0_0 - 1000 edge_10_8_0_0 <= 0
 inactive_no_flow_10_9_0_0: flow_10_9_0_0 - 1000 edge_10_9_0_0 <= 0
 inactive_no_flow_10_12_0_0: flow_10_12_0_0 - 1000 edge_10_12_0_0 <= 0
 inactive_no_flow_10_13_0_0: flow_10_13_0_0 - 1000 edge_10_13_0_0 <= 0
 inactive_no_flow_10_14_0_0: flow_10_14_0_0 - 1000 edge_10_14_0_0 <= 0
 inactive_no_flow_10_15_0_0: flow_10_15_0_0 - 1000 edge_10_15_0_0 <= 0
 inactive_no_flow_10_16_0_0: flow_10_16_0_0 - 1000 edge_10_16_0_0 <= 0
 inactive_no_flow_10_18_0_0: flow_10_18_0_0 - 1000 edge_10_18_0_0 <= 0
 inactive_no_flow_10_20_0_0: flow_10_20_0_0 - 1000 edge_10_20_0_0 <= 0
 inactive_no_flow_10_21_0_0: flow_10_21_0_0 - 1000 edge_10_21_0_0 <= 0
 inactive_no_flow_12_6_0_0: flow_12_6_0_0 - 1000 edge_12_6_0_0 <= 0
 inactive_no_flow_12_8_0_0: flow_12_8_0_0 - 1000 edge_12_8_0_0 <= 0
 inactive_no_flow_12_13_0_0: flow_12_13_0_0 - 1000 edge_12_13_0_0 <= 0
 inactive_no_flow_12_18_0_0: flow_12_18_0_0 - 1000 edge_12_18_0_0 <= 0
 inactive_no_flow_12_20_0_0: flow_12_20_0_0 - 1000 edge_12_20_0_0 <= 0
 inactive_no_flow_13_7_0_0: flow_13_7_0_0 - 1000 edge_13_7_0_0 <= 0
 inactive_no_flow_13_8_0_0: flow_13_8_0_0 - 1000 edge_13_8_0_0 <= 0
 inactive_no_flow_13_12_0_0: flow_13_12_0_0 - 1000 edge_13_12_0_0 <= 0
 inactive_no_flow_13_15_0_0: flow_13_15_0_0 - 1000 edge_13_15_0_0 <= 0
 inactive_no_flow_13_16_0_0: flow_13_16_0_0 - 1000 edge_13_16_0_0 <= 0
 inactive_no_flow_13_18_0_0: flow_13_18_0_0 - 1000 edge_13_18_0_0 <= 0
 inactive_no_flow_13_20_0_0: flow_13_20_0_0 - 1000 edge_13_20_0_0 <= 0
 inactive_no_flow_13_21_0_0: flow_13_21_0_0 - 1000 edge_13_21_0_0 <= 0
 inactive_no_flow_14_8_0_0: flow_14_8_0_0 - 1000 edge_14_8_0_0 <= 0
 inactive_no_flow_14_15_0_0: flow_14_15_0_0 - 1000 edge_14_15_0_0 <= 0
 inactive_no_flow_14_16_0_0: flow_14_16_0_0 - 1000 edge_14_16_0_0 <= 0
 inactive_no_flow_14_18_0_0: flow_14_18_0_0 - 1000 edge_14_18_0_0 <= 0
 inactive_no_flow_14_19_0_0: flow_14_19_0_0 - 1000 edge_14_19_0_0 <= 0
 inactive_no_flow_14_20_0_0: flow_14_20_0_0 - 1000 edge_14_20_0_0 <= 0
 inactive_no_flow_15_1_0_0: flow_15_1_0_0 - 1000 edge_15_1_0_0 <= 0
 inactive_no_flow_15_3_0_0: flow_15_3_0_0 - 1000 edge_15_3_0_0 <= 0
 inactive_no_flow_15_4_0_0: flow_15_4_0_0 - 1000 edge_15_4_0_0 <= 0
 inactive_no_flow_15_5_0_0: flow_15_5_0_0 - 1000 edge_15_5_0_0 <= 0
 inactive_no_flow_15_6_0_0: flow_15_6_0_0 - 1000 edge_15_6_0_0 <= 0
 inactive_no_flow_15_7_0_0: flow_15_7_0_0 - 1000 edge_15_7_0_0 <= 0
 inactive_no_flow_15_8_0_0: flow_15_8_0_0 - 1000 edge_15_8_0_0 <= 0
 inactive_no_flow_15_9_0_0: flow_15_9_0_0 - 1000 edge_15_9_0_0 <= 0
 inactive_no_flow_15_10_0_0: flow_15_10_0_0 - 1000 edge_15_10_0_0 <= 0
 inactive_no_flow_15_12_0_0: flow_15_12_0_0 - 1000 edge_15_12_0_0 <= 0
 inactive_no_flow_15_13_0_0: flow_15_13_0_0 - 1000 edge_15_13_0_0 <= 0
 inactive_no_flow_15_14_0_0: flow_15_14_0_0 - 1000 edge_15_14_0_0 <= 0
 inactive_no_flow_15_16_0_0: flow_15_16_0_0 - 1000 edge_15_16_0_0 <= 0
 inactive_no_flow_15_18_0_0: flow_15_18_0_0 - 1000 edge_15_18_0_0 <= 0
 inactive_no_flow_15_19_0_0: flow_15_19_0_0 - 1000 edge_15_19_0_0 <= 0
 inactive_no_flow_15_20_0_0: flow_15_20_0_0 - 1000 edge_15_20_0_0 <= 0
 inactive_no_flow_15_21_0_0: flow_15_21_0_0 - 1000 edge_15_21_0_0 <= 0
 inactive_no_flow_16_14_0_0: flow_16_14_0_0 - 1000 edge_16_14_0_0 <= 0
 inactive_no_flow_16_15_0_0: flow_16_15_0_0 - 1000 edge_16_15_0_0 <= 0
 inactive_no_flow_16_18_0_0: flow_16_18_0_0 - 1000 edge_16_18_0_0 <= 0
 inactive_no_flow_16_19_0_0: flow_16_19_0_0 - 1000 edge_16_19_0_0 <= 0
 inactive_no_flow_16_20_0_0: flow_16_20_0_0 - 1000 edge_16_20_0_0 <= 0
 inactive_no_flow_18_1_0_0: flow_18_1_0_0 - 1000 edge_18_1_0_0 <= 0
 inactive_no_flow_18_2_0_0: flow_18_2_0_0 - 1000 edge_18_2_0_0 <= 0
 inactive_no_flow_18_3_0_0: flow_18_3_0_0 - 1000 edge_18_3_0_0 <= 0
 inactive_no_flow_18_4_0_0: flow_18_4_0_0 - 1000 edge_18_4_0_0 <= 0
 inactive_no_flow_18_5_0_0: flow_18_5_0_0 - 1000 edge_18_5_0_0 <= 0
 inactive_no_flow_18_6_0_0: flow_18_6_0_0 - 1000 edge_18_6_0_0 <= 0
 inactive_no_flow_18_7_0_0: flow_18_7_0_0 - 1000 edge_18_7_0_0 <= 0
 inactive_no_flow_18_8_0_0: flow_18_8_0_0 - 1000 edge_18_8_0_0 <= 0
 inactive_no_flow_18_9_0_0: flow_18_9_0_0 - 1000 edge_18_9_0_0 <= 0
 inactive_no_flow_18_10_0_0: flow_18_10_0_0 - 1000 edge_18_10_0_0 <= 0
 inactive_no_flow_18_12_0_0: flow_18_12_0_0 - 1000 edge_18_12_0_0 <= 0
 inactive_no_flow_18_13_0_0: flow_18_13_0_0 - 1000 edge_18_13_0_0 <= 0
 inactive_no_flow_18_14_0_0: flow_18_14_0_0 - 1000 edge_18_14_0_0 <= 0
 inactive_no_flow_18_15_0_0: flow_18_15_0_0 - 1000 edge_18_15_0_0 <= 0
 inactive_no_flow_18_16_0_0: flow_18_16_0_0 - 1000 edge_18_16_0_0 <= 0
 inactive_no_flow_18_17_0_0: flow_18_17_0_0 - 1000 edge_18_17_0_0 <= 0
 inactive_no_flow_18_19_0_0: flow_18_19_0_0 - 1000 edge_18_19_0_0 <= 0
 inactive_no_flow_18_20_0_0: flow_18_20_0_0 - 1000 edge_18_20_0_0 <= 0
 inactive_no_flow_18_21_0_0: flow_18_21_0_0 - 1000 edge_18_21_0_0 <= 0
 inactive_no_flow_19_20_0_0: flow_19_20_0_0 - 1000 edge_19_20_0_0 <= 0
 inactive_no_flow_19_21_0_0: flow_19_21_0_0 - 1000 edge_19_21_0_0 <= 0
 inactive_no_flow_20_12_0_0: flow_20_12_0_0 - 1000 edge_20_12_0_0 <= 0
 inactive_no_flow_20_13_0_0: flow_20_13_0_0 - 1000 edge_20_13_0_0 <= 0
 inactive_no_flow_20_14_0_0: flow_20_14_0_0 - 1000 edge_20_14_0_0 <= 0
 inactive_no_flow_20_15_0_0: flow_20_15_0_0 - 1000 edge_20_15_0_0 <= 0
 inactive_no_flow_20_16_0_0: flow_20_16_0_0 - 1000 edge_20_16_0_0 <= 0
 inactive_no_flow_20_17_0_0: flow_20_17_0_0 - 1000 edge_20_17_0_0 <= 0
 inactive_no_flow_20_18_0_0: flow_20_18_0_0 - 1000 edge_20_18_0_0 <= 0
 inactive_no_flow_20_19_0_0: flow_20_19_0_0 - 1000 edge_20_19_0_0 <= 0
 inactive_no_flow_20_21_0_0: flow_20_21_0_0 - 1000 edge_20_21_0_0 <= 0
Bounds
Binaries
 edge_0_1_0_0 edge_0_2_0_0 edge_0_3_0_0 edge_0_4_0_0 edge_0_5_0_0
 edge_0_6_0_0 edge_0_10_0_0 edge_1_2_0_0 edge_1_3_0_0 edge_1_4_0_0
 edge_1_5_0_0 edge_1_6_0_0 edge_2_1_0_0 edge_2_3_0_0 edge_2_4_0_0
 edge_2_5_0_0 edge_2_6_0_0 edge_2_7_0_0 edge_2_8_0_0 edge_2_9_0_0
 edge_2_10_0_0 edge_2_15_0_0 edge_2_16_0_0 edge_2_18_0_0 edge_2_20_0_0
 edge_2_21_0_0 edge_3_1_0_0 edge_3_2_0_0 edge_3_4_0_0 edge_3_5_0_0
 edge_3_6_0_0 edge_3_7_0_0 edge_3_8_0_0 edge_3_10_0_0 edge_3_12_0_0
 edge_3_13_0_0 edge_3_15_0_0 edge_3_16_0_0 edge_3_18_0_0 edge_3_20_0_0
 edge_3_21_0_0 edge_4_1_0_0 edge_4_2_0_0 edge_4_3_0_0 edge_4_5_0_0
 edge_4_6_0_0 edge_4_7_0_0 edge_4_8_0_0 edge_4_9_0_0 edge_4_10_0_0
 edge_4_12_0_0 edge_4_13_0_0 edge_4_15_0_0 edge_4_16_0_0 edge_4_18_0_0
 edge_4_20_0_0 edge_4_21_0_0 edge_5_1_0_0 edge_5_2_0_0 edge_5_3_0_0
 edge_5_4_0_0 edge_5_6_0_0 edge_5_7_0_0 edge_5_8_0_0 edge_5_9_0_0
 edge_5_10_0_0 edge_5_13_0_0 edge_5_14_0_0 edge_5_15_0_0 edge_5_19_0_0
 edge_5_20_0_0 edge_6_1_0_0 edge_6_2_0_0 edge_6_3_0_0 edge_6_4_0_0
 edge_6_5_0_0 edge_6_7_0_0 edge_6_8_0_0 edge_6_9_0_0 edge_6_10_0_0
 edge_6_14_0_0 edge_6_15_0_0 edge_6_16_0_0 edge_6_18_0_0 edge_6_19_0_0
 edge_6_20_0_0 edge_6_21_0_0 edge_7_2_0_0 edge_7_5_0_0 edge_7_6_0_0
 edge_7_8_0_0 edge_7_9_0_0 edge_7_10_0_0 edge_7_12_0_0 edge_7_13_0_0
 edge_7_14_0_0 edge_7_15_0_0 edge_7_18_0_0 edge_7_19_0_0 edge_8_1_0_0
 edge_8_2_0_0 edge_8_3_0_0 edge_8_4_0_0 edge_8_5_0_0 edge_8_6_0_0
 edge_8_7_0_0 edge_8_9_0_0 edge_8_10_0_0 edge_8_12_0_0 edge_8_13_0_0
 edge_8_14_0_0 edge_8_15_0_0 edge_8_16_0_0 edge_8_18_0_0 edge_8_19_0_0
 edge_8_20_0_0 edge_8_21_0_0 edge_9_7_0_0 edge_9_8_0_0 edge_10_1_0_0
 edge_10_2_0_0 edge_10_3_0_0 edge_10_4_0_0 edge_10_5_0_0 edge_10_6_0_0
 edge_10_7_0_0 edge_10_8_0_0 edge_10_9_0_0 edge_10_12_0_0 edge_10_13_0_0
 edge_10_14_0_0 edge_10_15_0_0 edge_10_16_0_0 edge_10_18_0_0 edge_10_20_0_0
 edge_10_21_0_0 edge_12_6_0_0 edge_12_8_0_0 edge_12_13_0_0 edge_12_18_0_0
 edge_12_20_0_0 edge_13_7_0_0 edge_13_8_0_0 edge_13_12_0_0 edge_13_15_0_0
 edge_13_16_0_0 edge_13_18_0_0 edge_13_20_0_0 edge_13_21_0_0 edge_14_8_0_0
 edge_14_15_0_0 edge_14_16_0_0 edge_14_18_0_0 edge_14_19_0_0 edge_14_20_0_0
 edge_15_1_0_0 edge_15_3_0_0 edge_15_4_0_0 edge_15_5_0_0 edge_15_6_0_0
 edge_15_7_0_0 edge_15_8_0_0 edge_15_9_0_0 edge_15_10_0_0 edge_15_12_0_0
 edge_15_13_0_0 edge_15_14_0_0 edge_15_16_0_0 edge_15_18_0_0 edge_15_19_0_0
 edge_15_20_0_0 edge_15_21_0_0 edge_16_14_0_0 edge_16_15_0_0 edge_16_18_0_0
 edge_16_19_0_0 edge_16_20_0_0 edge_18_1_0_0 edge_18_2_0_0 edge_18_3_0_0
 edge_18_4_0_0 edge_18_5_0_0 edge_18_6_0_0 edge_18_7_0_0 edge_18_8_0_0
 edge_18_9_0_0 edge_18_10_0_0 edge_18_12_0_0 edge_18_13_0_0 edge_18_14_0_0
 edge_18_15_0_0 edge_18_16_0_0 edge_18_17_0_0 edge_18_19_0_0 edge_18_20_0_0
 edge_18_21_0_0 edge_19_20_0_0 edge_19_21_0_0 edge_20_12_0_0 edge_20_13_0_0
 edge_20_14_0_0 edge_20_15_0_0 edge_20_16_0_0 edge_20_17_0_0 edge_20_18_0_0
 edge_20_19_0_0 edge_20_21_0_0
End
